c Result of efficient AIG-to-CNF conversion using package CNF
p cnf 577 2102
-2 3 419 422 423 0
-2 3 -419 -422 423 0
2 -423 0
2 -419 422 0
2 -3 0
2 419 -422 0
3 -4 274 0
-3 4 0
-3 -274 0
-4 5 45 0
-4 -5 244 0
4 -5 -244 0
4 5 -45 0
5 -540 6 -32 0
5 540 6 -17 0
-5 -6 0
-5 -540 32 0
-5 540 17 0
-6 7 13 15 16 0
6 -16 0
6 -7 0
6 -15 0
6 -13 0
-7 537 538 8 10 0
7 -537 0
7 -10 0
7 -8 0
7 -538 0
-8 529 535 536 9 0
8 -9 0
8 -536 0
8 -529 0
8 -535 0
-9 533 534 539 0
9 -533 0
9 -539 0
9 -534 0
-10 530 531 532 11 0
10 -11 0
10 -532 0
10 -530 0
10 -531 0
-11 525 526 12 0
11 -12 0
11 -526 0
11 -525 0
-12 521 522 527 528 0
12 -528 0
12 -527 0
12 -521 0
12 -522 0
-13 519 523 524 14 0
13 -14 0
13 -524 0
13 -519 0
13 -523 0
-14 517 518 0
14 -517 0
14 -518 0
-15 513 520 0
15 -513 0
15 -520 0
-16 514 515 516 0
16 -514 0
16 -516 0
16 -515 0
-17 541 18 0
-17 -541 25 0
17 -541 -25 0
17 541 -18 0
-18 542 19 0
-18 -542 22 0
18 -542 -22 0
18 542 -19 0
-19 543 21 0
-19 -543 20 0
19 -543 -20 0
19 543 -21 0
20 -544 -570 0
20 544 -571 0
-20 544 571 0
-20 -544 570 0
21 -544 -572 0
21 544 -573 0
-21 544 573 0
-21 -544 572 0
22 543 -23 0
22 -543 -24 0
-22 -543 24 0
-22 543 23 0
23 -544 -568 0
23 544 -569 0
-23 544 569 0
-23 -544 568 0
24 -544 -566 0
24 544 -567 0
-24 544 567 0
-24 -544 566 0
25 542 -26 0
25 -542 -29 0
-25 -542 29 0
-25 542 26 0
26 543 -27 0
26 -543 -28 0
-26 -543 28 0
-26 543 27 0
27 -544 -564 0
27 544 -565 0
-27 544 565 0
-27 -544 564 0
28 -544 -562 0
28 544 -563 0
-28 544 563 0
-28 -544 562 0
29 543 -30 0
29 -543 -31 0
-29 -543 31 0
-29 543 30 0
30 -544 -560 0
30 544 -561 0
-30 544 561 0
-30 -544 560 0
31 -544 -558 0
31 544 -559 0
-31 544 559 0
-31 -544 558 0
32 541 -33 0
32 -541 -40 0
-32 -541 40 0
-32 541 33 0
33 542 -34 0
33 -542 -37 0
-33 -542 37 0
-33 542 34 0
34 543 -35 0
34 -543 -36 0
-34 -543 36 0
-34 543 35 0
35 -544 -556 0
35 544 -557 0
-35 544 557 0
-35 -544 556 0
36 -544 -554 0
36 544 -555 0
-36 544 555 0
-36 -544 554 0
37 543 -38 0
37 -543 -39 0
-37 -543 39 0
-37 543 38 0
38 -544 -552 0
38 544 -553 0
-38 544 553 0
-38 -544 552 0
39 -544 -550 0
39 544 -551 0
-39 544 551 0
-39 -544 550 0
40 542 -41 0
40 -542 -44 0
-40 -542 44 0
-40 542 41 0
41 543 -42 0
41 -543 -43 0
-41 -543 43 0
-41 543 42 0
42 -544 -548 0
42 544 -549 0
-42 544 549 0
-42 -544 548 0
43 -544 -546 0
43 544 -547 0
-43 544 547 0
-43 -544 546 0
44 543 544 -545 0
-44 545 0
-44 -544 0
-44 -543 0
-45 46 75 0
-45 -46 213 0
45 -46 -213 0
45 46 -75 0
46 -540 6 -62 0
46 540 6 -47 0
-46 -6 0
-46 -540 62 0
-46 540 47 0
-47 541 48 0
-47 -541 55 0
47 -541 -55 0
47 541 -48 0
-48 542 49 0
-48 -542 52 0
48 -542 -52 0
48 542 -49 0
-49 543 51 0
-49 -543 50 0
49 -543 -50 0
49 543 -51 0
50 -544 -571 0
50 544 -572 0
-50 544 572 0
-50 -544 571 0
51 -544 -573 0
51 544 -574 0
-51 544 574 0
-51 -544 573 0
52 543 -53 0
52 -543 -54 0
-52 -543 54 0
-52 543 53 0
53 -544 -569 0
53 544 -570 0
-53 544 570 0
-53 -544 569 0
54 -544 -567 0
54 544 -568 0
-54 544 568 0
-54 -544 567 0
55 542 -56 0
55 -542 -59 0
-55 -542 59 0
-55 542 56 0
56 543 -57 0
56 -543 -58 0
-56 -543 58 0
-56 543 57 0
57 -544 -565 0
57 544 -566 0
-57 544 566 0
-57 -544 565 0
58 -544 -563 0
58 544 -564 0
-58 544 564 0
-58 -544 563 0
59 543 -60 0
59 -543 -61 0
-59 -543 61 0
-59 543 60 0
60 -544 -561 0
60 544 -562 0
-60 544 562 0
-60 -544 561 0
61 -544 -559 0
61 544 -560 0
-61 544 560 0
-61 -544 559 0
62 541 -63 0
62 -541 -70 0
-62 -541 70 0
-62 541 63 0
63 542 -64 0
63 -542 -67 0
-63 -542 67 0
-63 542 64 0
64 543 -65 0
64 -543 -66 0
-64 -543 66 0
-64 543 65 0
65 -544 -557 0
65 544 -558 0
-65 544 558 0
-65 -544 557 0
66 -544 -555 0
66 544 -556 0
-66 544 556 0
-66 -544 555 0
67 543 -68 0
67 -543 -69 0
-67 -543 69 0
-67 543 68 0
68 -544 -553 0
68 544 -554 0
-68 544 554 0
-68 -544 553 0
69 -544 -551 0
69 544 -552 0
-69 544 552 0
-69 -544 551 0
70 542 -71 0
70 -542 -74 0
-70 -542 74 0
-70 542 71 0
71 543 -72 0
71 -543 -73 0
-71 -543 73 0
-71 543 72 0
72 -544 -549 0
72 544 -550 0
-72 544 550 0
-72 -544 549 0
73 -544 -547 0
73 544 -548 0
-73 544 548 0
-73 -544 547 0
74 543 544 -546 0
74 543 -544 -545 0
-74 -543 0
-74 -544 545 0
-74 544 546 0
-75 76 179 0
-75 -76 92 0
75 -76 -92 0
75 76 -179 0
76 -540 6 -85 0
76 540 6 -77 0
-76 -6 0
-76 -540 85 0
-76 540 77 0
-77 541 78 0
-77 -541 82 0
77 -541 -82 0
77 541 -78 0
-78 542 79 0
-78 -542 81 0
78 -542 -81 0
78 542 -79 0
-79 543 80 0
-79 -543 21 0
79 -543 -21 0
79 543 -80 0
80 -544 -574 0
80 544 -575 0
-80 544 575 0
-80 -544 574 0
81 543 -20 0
81 -543 -23 0
-81 -543 23 0
-81 543 20 0
82 542 -83 0
82 -542 -84 0
-82 -542 84 0
-82 542 83 0
83 543 -24 0
83 -543 -27 0
-83 -543 27 0
-83 543 24 0
84 543 -28 0
84 -543 -30 0
-84 -543 30 0
-84 543 28 0
85 541 -86 0
85 -541 -89 0
-85 -541 89 0
-85 541 86 0
86 542 -87 0
86 -542 -88 0
-86 -542 88 0
-86 542 87 0
87 543 -31 0
87 -543 -35 0
-87 -543 35 0
-87 543 31 0
88 543 -36 0
88 -543 -38 0
-88 -543 38 0
-88 543 36 0
89 542 -90 0
89 -542 -91 0
-89 -542 91 0
-89 542 90 0
90 543 -39 0
90 -543 -42 0
-90 -543 42 0
-90 543 39 0
91 543 -43 0
91 -543 544 -545 0
-91 -543 -544 0
-91 543 43 0
-91 -543 545 0
92 93 -110 0
92 -93 -150 0
-92 -93 150 0
-92 93 110 0
93 -540 6 -102 0
93 540 6 -94 0
-93 -6 0
-93 -540 102 0
-93 540 94 0
-94 541 95 0
-94 -541 99 0
94 -541 -99 0
94 541 -95 0
-95 542 96 0
-95 -542 98 0
95 -542 -98 0
95 542 -96 0
-96 -543 51 0
-96 543 97 0
96 -543 -51 0
96 543 -97 0
-97 544 576 0
-97 -544 575 0
97 -544 -575 0
97 544 -576 0
98 543 -50 0
98 -543 -53 0
-98 -543 53 0
-98 543 50 0
99 542 -100 0
99 -542 -101 0
-99 -542 101 0
-99 542 100 0
100 543 -54 0
100 -543 -57 0
-100 -543 57 0
-100 543 54 0
101 543 -58 0
101 -543 -60 0
-101 -543 60 0
-101 543 58 0
102 541 -103 0
102 -541 -106 0
-102 -541 106 0
-102 541 103 0
103 542 -104 0
103 -542 -105 0
-103 -542 105 0
-103 542 104 0
104 543 -61 0
104 -543 -65 0
-104 -543 65 0
-104 543 61 0
105 543 -66 0
105 -543 -68 0
-105 -543 68 0
-105 543 66 0
106 542 -107 0
106 -542 -108 0
-106 -542 108 0
-106 542 107 0
107 543 -69 0
107 -543 -72 0
-107 -543 72 0
-107 543 69 0
108 543 -73 0
108 -543 -109 0
-108 -543 109 0
-108 543 73 0
109 -544 -545 0
109 544 -546 0
-109 544 546 0
-109 -544 545 0
110 -572 111 -137 0
110 572 111 -122 0
-110 -111 0
-110 -572 137 0
-110 572 122 0
-111 112 118 119 121 0
111 -121 0
111 -112 0
111 -119 0
111 -118 0
-112 553 554 113 116 0
112 -553 0
112 -116 0
112 -113 0
112 -554 0
-113 548 549 114 115 0
113 -548 0
113 -115 0
113 -114 0
113 -549 0
-114 550 551 552 0
114 -550 0
114 -552 0
114 -551 0
-115 545 546 547 0
115 -545 0
115 -547 0
115 -546 0
-116 555 556 559 117 0
116 -117 0
116 -559 0
116 -555 0
116 -556 0
-117 557 558 0
117 -557 0
117 -558 0
-118 569 570 571 0
118 -569 0
118 -571 0
118 -570 0
-119 560 561 565 120 0
119 -120 0
119 -565 0
119 -560 0
119 -561 0
-120 562 563 564 0
120 -562 0
120 -564 0
120 -563 0
-121 566 567 568 0
121 -566 0
121 -568 0
121 -567 0
-122 573 123 0
-122 -573 130 0
122 -573 -130 0
122 573 -123 0
-123 574 124 0
-123 -574 127 0
123 -574 -127 0
123 574 -124 0
-124 575 126 0
-124 -575 125 0
124 -575 -125 0
124 575 -126 0
125 -518 -576 0
125 -517 576 0
-125 517 576 0
-125 518 -576 0
126 -516 -576 0
126 -515 576 0
-126 515 576 0
-126 516 -576 0
127 575 -128 0
127 -575 -129 0
-127 -575 129 0
-127 575 128 0
128 -520 -576 0
128 -519 576 0
-128 519 576 0
-128 520 -576 0
129 -522 -576 0
129 -521 576 0
-129 521 576 0
-129 522 -576 0
130 574 -131 0
130 -574 -134 0
-130 -574 134 0
-130 574 131 0
131 575 -132 0
131 -575 -133 0
-131 -575 133 0
-131 575 132 0
132 -524 -576 0
132 -523 576 0
-132 523 576 0
-132 524 -576 0
133 -526 -576 0
133 -525 576 0
-133 525 576 0
-133 526 -576 0
134 575 -135 0
134 -575 -136 0
-134 -575 136 0
-134 575 135 0
135 -528 -576 0
135 -527 576 0
-135 527 576 0
-135 528 -576 0
136 -530 -576 0
136 -529 576 0
-136 529 576 0
-136 530 -576 0
137 573 -138 0
137 -573 -145 0
-137 -573 145 0
-137 573 138 0
138 574 -139 0
138 -574 -142 0
-138 -574 142 0
-138 574 139 0
139 575 -140 0
139 -575 -141 0
-139 -575 141 0
-139 575 140 0
140 -532 -576 0
140 -531 576 0
-140 531 576 0
-140 532 -576 0
141 -534 -576 0
141 -533 576 0
-141 533 576 0
-141 534 -576 0
142 575 -143 0
142 -575 -144 0
-142 -575 144 0
-142 575 143 0
143 -536 -576 0
143 -535 576 0
-143 535 576 0
-143 536 -576 0
144 -538 -576 0
144 -537 576 0
-144 537 576 0
-144 538 -576 0
145 574 -146 0
145 -574 -149 0
-145 -574 149 0
-145 574 146 0
146 575 -147 0
146 -575 -148 0
-146 -575 148 0
-146 575 147 0
147 -540 -576 0
147 -539 576 0
-147 539 576 0
-147 540 -576 0
148 -542 -576 0
148 -541 576 0
-148 541 576 0
-148 542 -576 0
149 -543 575 576 0
149 -544 575 -576 0
-149 -575 0
-149 544 -576 0
-149 543 576 0
150 -572 111 -166 0
150 572 111 -151 0
-150 -111 0
-150 -572 166 0
-150 572 151 0
-151 573 152 0
-151 -573 159 0
151 -573 -159 0
151 573 -152 0
-152 574 153 0
-152 -574 156 0
152 -574 -156 0
152 574 -153 0
-153 575 155 0
-153 -575 154 0
153 -575 -154 0
153 575 -155 0
154 -519 -576 0
154 -518 576 0
-154 518 576 0
-154 519 -576 0
155 -517 -576 0
155 -516 576 0
-155 516 576 0
-155 517 -576 0
156 575 -157 0
156 -575 -158 0
-156 -575 158 0
-156 575 157 0
157 -521 -576 0
157 -520 576 0
-157 520 576 0
-157 521 -576 0
158 -523 -576 0
158 -522 576 0
-158 522 576 0
-158 523 -576 0
159 574 -160 0
159 -574 -163 0
-159 -574 163 0
-159 574 160 0
160 575 -161 0
160 -575 -162 0
-160 -575 162 0
-160 575 161 0
161 -525 -576 0
161 -524 576 0
-161 524 576 0
-161 525 -576 0
162 -527 -576 0
162 -526 576 0
-162 526 576 0
-162 527 -576 0
163 575 -164 0
163 -575 -165 0
-163 -575 165 0
-163 575 164 0
164 -529 -576 0
164 -528 576 0
-164 528 576 0
-164 529 -576 0
165 -531 -576 0
165 -530 576 0
-165 530 576 0
-165 531 -576 0
166 573 -167 0
166 -573 -174 0
-166 -573 174 0
-166 573 167 0
167 574 -168 0
167 -574 -171 0
-167 -574 171 0
-167 574 168 0
168 575 -169 0
168 -575 -170 0
-168 -575 170 0
-168 575 169 0
169 -533 -576 0
169 -532 576 0
-169 532 576 0
-169 533 -576 0
170 -535 -576 0
170 -534 576 0
-170 534 576 0
-170 535 -576 0
171 575 -172 0
171 -575 -173 0
-171 -575 173 0
-171 575 172 0
172 -537 -576 0
172 -536 576 0
-172 536 576 0
-172 537 -576 0
173 -539 -576 0
173 -538 576 0
-173 538 576 0
-173 539 -576 0
174 574 -175 0
174 -574 -178 0
-174 -574 178 0
-174 574 175 0
175 575 -176 0
175 -575 -177 0
-175 -575 177 0
-175 575 176 0
176 -541 -576 0
176 -540 576 0
-176 540 576 0
-176 541 -576 0
177 -543 -576 0
177 -542 576 0
-177 542 576 0
-177 543 -576 0
178 -544 575 576 0
-178 544 0
-178 -576 0
-178 -575 0
179 -93 -197 0
179 93 111 -180 0
-179 -93 197 0
-179 93 -111 0
-179 93 180 0
-180 572 181 0
-180 -572 189 0
180 -572 -189 0
180 572 -181 0
-181 573 182 0
-181 -573 186 0
181 -573 -186 0
181 573 -182 0
-182 574 184 0
-182 -574 183 0
182 -574 -183 0
182 574 -184 0
183 575 -125 0
183 -575 -128 0
-183 -575 128 0
-183 575 125 0
184 -575 -126 0
184 575 -185 0
-184 575 185 0
-184 -575 126 0
185 -514 -576 0
185 -513 576 0
-185 513 576 0
-185 514 -576 0
186 574 -187 0
186 -574 -188 0
-186 -574 188 0
-186 574 187 0
187 575 -129 0
187 -575 -132 0
-187 -575 132 0
-187 575 129 0
188 575 -133 0
188 -575 -135 0
-188 -575 135 0
-188 575 133 0
189 573 -190 0
189 -573 -193 0
-189 -573 193 0
-189 573 190 0
190 574 -191 0
190 -574 -192 0
-190 -574 192 0
-190 574 191 0
191 575 -136 0
191 -575 -140 0
-191 -575 140 0
-191 575 136 0
192 575 -141 0
192 -575 -143 0
-192 -575 143 0
-192 575 141 0
193 574 -194 0
193 -574 -195 0
-193 -574 195 0
-193 574 194 0
194 575 -144 0
194 -575 -147 0
-194 -575 147 0
-194 575 144 0
195 575 -148 0
195 -575 -196 0
-195 -575 196 0
-195 575 148 0
196 -544 -576 0
196 -543 576 0
-196 543 576 0
-196 544 -576 0
197 -572 111 -206 0
197 572 111 -198 0
-197 -111 0
-197 -572 206 0
-197 572 198 0
-198 573 199 0
-198 -573 203 0
198 -573 -203 0
198 573 -199 0
-199 574 200 0
-199 -574 202 0
199 -574 -202 0
199 574 -200 0
-200 575 201 0
-200 -575 155 0
200 -575 -155 0
200 575 -201 0
201 -515 -576 0
201 -514 576 0
-201 514 576 0
-201 515 -576 0
202 575 -154 0
202 -575 -157 0
-202 -575 157 0
-202 575 154 0
203 574 -204 0
203 -574 -205 0
-203 -574 205 0
-203 574 204 0
204 575 -158 0
204 -575 -161 0
-204 -575 161 0
-204 575 158 0
205 575 -162 0
205 -575 -164 0
-205 -575 164 0
-205 575 162 0
206 573 -207 0
206 -573 -210 0
-206 -573 210 0
-206 573 207 0
207 574 -208 0
207 -574 -209 0
-207 -574 209 0
-207 574 208 0
208 575 -165 0
208 -575 -169 0
-208 -575 169 0
-208 575 165 0
209 575 -170 0
209 -575 -172 0
-209 -575 172 0
-209 575 170 0
210 574 -211 0
210 -574 -212 0
-210 -574 212 0
-210 574 211 0
211 575 -173 0
211 -575 -176 0
-211 -575 176 0
-211 575 173 0
212 575 -177 0
212 -544 -575 576 0
-212 575 177 0
-212 -575 -576 0
-212 544 -575 0
213 76 -214 0
213 -76 -229 0
-213 -76 229 0
-213 76 214 0
214 93 -215 0
214 -93 -222 0
-214 -93 222 0
-214 93 215 0
215 -572 111 -219 0
215 572 111 -216 0
-215 -111 0
-215 -572 219 0
-215 572 216 0
-216 573 217 0
-216 -573 218 0
216 -573 -218 0
216 573 -217 0
-217 -574 187 0
-217 574 183 0
217 574 -183 0
217 -574 -187 0
218 574 -188 0
218 -574 -191 0
-218 -574 191 0
-218 574 188 0
219 573 -220 0
219 -573 -221 0
-219 -573 221 0
-219 573 220 0
220 574 -192 0
220 -574 -194 0
-220 -574 194 0
-220 574 192 0
221 574 -195 0
-221 -574 0
-221 195 0
222 -572 111 -226 0
222 572 111 -223 0
-222 -111 0
-222 -572 226 0
-222 572 223 0
-223 573 224 0
-223 -573 225 0
223 -573 -225 0
223 573 -224 0
-224 -574 204 0
-224 574 202 0
224 574 -202 0
224 -574 -204 0
225 574 -205 0
225 -574 -208 0
-225 -574 208 0
-225 574 205 0
226 573 -227 0
226 -573 -228 0
-226 -573 228 0
-226 573 227 0
227 574 -209 0
227 -574 -211 0
-227 -574 211 0
-227 574 209 0
228 574 -212 0
-228 -574 0
-228 212 0
229 93 -230 0
229 -93 -237 0
-229 -93 237 0
-229 93 230 0
230 -572 111 -234 0
230 572 111 -231 0
-230 -111 0
-230 -572 234 0
-230 572 231 0
-231 573 232 0
-231 -573 233 0
231 -573 -233 0
231 573 -232 0
-232 -574 131 0
-232 574 127 0
232 574 -127 0
232 -574 -131 0
233 574 -134 0
233 -574 -139 0
-233 -574 139 0
-233 574 134 0
234 573 -235 0
234 -573 -236 0
-234 -573 236 0
-234 573 235 0
235 574 -142 0
235 -574 -146 0
-235 -574 146 0
-235 574 142 0
236 574 -149 0
-236 -574 0
-236 149 0
237 -572 111 -241 0
237 572 111 -238 0
-237 -111 0
-237 -572 241 0
-237 572 238 0
-238 573 239 0
-238 -573 240 0
238 -573 -240 0
238 573 -239 0
-239 -574 160 0
-239 574 156 0
239 574 -156 0
239 -574 -160 0
240 574 -163 0
240 -574 -168 0
-240 -574 168 0
-240 574 163 0
241 573 -242 0
241 -573 -243 0
-241 -573 243 0
-241 573 242 0
242 574 -171 0
242 -574 -175 0
-242 -574 175 0
-242 574 171 0
243 -544 574 575 576 0
-243 -576 0
-243 -575 0
-243 544 0
-243 -574 0
244 46 -245 0
244 -46 -260 0
-244 -46 260 0
-244 46 245 0
245 76 -246 0
245 -76 -253 0
-245 -76 253 0
-245 76 246 0
246 93 -247 0
246 -93 -250 0
-246 -93 250 0
-246 93 247 0
247 -572 111 -249 0
247 572 111 -248 0
-247 -111 0
-247 -572 249 0
-247 572 248 0
248 573 -186 0
248 -573 -190 0
-248 -573 190 0
-248 573 186 0
249 573 -193 0
-249 -573 0
-249 193 0
250 -572 111 -252 0
250 572 111 -251 0
-250 -111 0
-250 -572 252 0
-250 572 251 0
251 573 -203 0
251 -573 -207 0
-251 -573 207 0
-251 573 203 0
252 573 -210 0
-252 -573 0
-252 210 0
253 93 -254 0
253 -93 -257 0
-253 -93 257 0
-253 93 254 0
254 -572 111 -256 0
254 572 111 -255 0
-254 -111 0
-254 -572 256 0
-254 572 255 0
255 573 -130 0
255 -573 -138 0
-255 -573 138 0
-255 573 130 0
256 573 -145 0
-256 -573 0
-256 145 0
257 -572 111 -259 0
257 572 111 -258 0
-257 -111 0
-257 -572 259 0
-257 572 258 0
258 573 -159 0
258 -573 -167 0
-258 -573 167 0
-258 573 159 0
259 573 -174 0
-259 -573 0
-259 174 0
260 76 -261 0
260 -76 -268 0
-260 -76 268 0
-260 76 261 0
261 93 -262 0
261 -93 -265 0
-261 -93 265 0
-261 93 262 0
262 -572 111 -264 0
262 572 111 -263 0
-262 -111 0
-262 -572 264 0
-262 572 263 0
263 573 -218 0
263 -573 -220 0
-263 -573 220 0
-263 573 218 0
264 573 -221 0
-264 -573 0
-264 221 0
265 -572 111 -267 0
265 572 111 -266 0
-265 -111 0
-265 -572 267 0
-265 572 266 0
266 573 -225 0
266 -573 -227 0
-266 -573 227 0
-266 573 225 0
267 573 -228 0
-267 -573 0
-267 228 0
268 -93 -271 0
268 93 -269 270 0
-268 93 269 0
-268 -93 271 0
-268 93 -270 0
-269 572 -573 235 0
-269 572 573 233 0
269 -572 0
269 -573 -235 0
269 573 -233 0
-270 572 111 0
-270 573 111 -236 0
270 -111 0
270 -572 236 0
270 -572 -573 0
271 -572 111 -273 0
271 572 111 -272 0
-271 -111 0
-271 -572 273 0
-271 572 272 0
272 573 -240 0
272 -573 -242 0
-272 -573 242 0
-272 573 240 0
273 573 -243 0
-273 -573 0
-273 243 0
274 572 -275 382 0
274 -572 382 -387 0
-274 -382 0
-274 -572 387 0
-274 572 275 0
275 -573 -355 0
275 573 -276 336 0
-275 573 276 0
-275 -573 355 0
-275 573 -336 0
-276 574 -575 325 0
-276 574 575 277 0
276 -574 0
276 -575 -325 0
276 575 -277 0
277 -576 278 -317 0
277 576 278 -306 0
-277 -278 0
-277 -576 317 0
-277 576 306 0
278 285 -289 0
278 541 -279 -289 0
-278 289 0
-278 279 -285 0
-278 -541 -285 0
-279 70 280 282 0
279 -282 0
279 -280 0
279 -70 0
-280 40 89 106 281 0
280 -281 0
280 -106 0
280 -40 0
280 -89 0
281 542 -108 0
-281 -542 0
-281 108 0
-282 -542 283 0
-282 542 88 284 0
282 542 -88 0
282 -542 -283 0
282 542 -284 0
-283 41 71 90 0
283 -41 0
283 -90 0
283 -71 0
-284 37 67 0
284 -37 0
284 -67 0
285 -540 286 287 0
-285 540 0
-285 -287 0
-285 -286 0
286 542 -91 0
-286 -542 0
-286 91 0
287 542 -288 0
-287 -542 0
-287 288 0
-288 -543 0
-288 -544 545 0
-288 545 546 0
288 543 -545 0
288 543 544 -546 0
289 6 -62 0
289 6 -290 0
289 6 -85 0
-289 -6 0
-289 62 85 290 0
-290 32 282 291 296 0
290 -32 0
290 -296 0
290 -291 0
290 -282 0
-291 102 292 294 295 0
291 -295 0
291 -294 0
291 -102 0
291 -292 0
292 -541 -281 0
292 541 -293 0
-292 541 293 0
-292 -541 281 0
293 542 -105 0
293 -542 -107 0
-293 -542 107 0
-293 542 105 0
294 -542 -34 0
294 -542 -87 0
294 -542 -64 0
-294 542 0
-294 34 64 87 0
295 542 -84 0
295 542 -59 0
295 542 -29 0
-295 -542 0
-295 29 59 84 0
-296 -541 297 305 0
-296 541 297 299 0
296 -297 0
296 -541 -305 0
296 541 -299 0
-297 541 298 0
-297 33 293 298 0
297 -298 0
297 -541 -293 0
297 -541 -33 0
-298 540 286 287 0
298 -540 0
298 -287 0
298 -286 0
-299 55 99 300 303 0
299 -55 0
299 -303 0
299 -300 0
299 -99 0
-300 82 280 -301 0
-300 82 280 302 0
300 -82 0
300 -280 0
300 301 -302 0
301 -542 26 56 83 0
-301 -83 0
-301 -56 0
-301 542 0
-301 -26 0
-302 542 22 52 81 0
302 -81 0
302 -52 0
302 -542 0
302 -22 0
-303 25 70 304 0
303 -25 0
303 -304 0
303 -70 0
304 542 -101 0
304 -542 -104 0
-304 -542 104 0
-304 542 101 0
-305 63 86 103 0
305 -63 0
305 -103 0
305 -86 0
-306 513 310 0
-306 513 307 0
306 -513 0
306 -307 -310 0
307 540 6 -308 0
307 -540 6 -292 0
-307 -6 0
-307 540 308 0
-307 -540 292 0
-308 -541 304 0
-308 541 309 0
308 -541 -304 0
308 541 -309 0
-309 -542 100 0
-309 542 98 0
309 542 -98 0
309 -542 -100 0
310 -5 -311 0
310 -529 5 0
-310 -5 311 0
-310 529 5 0
311 46 -312 0
311 -46 -314 0
-311 -46 314 0
-311 46 312 0
312 -76 -313 0
312 -537 76 0
-312 -76 313 0
-312 537 76 0
313 -540 -93 0
313 -539 93 0
-313 539 93 0
-313 540 -93 0
314 76 -315 0
314 -76 -316 0
-314 -76 316 0
-314 76 315 0
315 -542 -93 0
315 -541 93 0
-315 541 93 0
-315 542 -93 0
316 -544 -93 0
316 -543 93 0
-316 543 93 0
-316 544 -93 0
-317 514 318 0
-317 514 307 0
317 -514 0
317 -307 -318 0
318 -5 -319 0
318 -530 5 0
-318 -5 319 0
-318 530 5 0
319 46 -320 0
319 -46 -322 0
-319 -46 322 0
-319 46 320 0
320 -76 -321 0
320 -538 76 0
-320 -76 321 0
-320 538 76 0
321 -541 -93 0
321 -540 93 0
-321 540 93 0
-321 541 -93 0
322 76 -323 0
322 -76 -324 0
-322 -76 324 0
-322 76 323 0
323 -543 -93 0
323 -542 93 0
-323 542 93 0
-323 543 -93 0
324 -544 93 0
-324 544 0
-324 -93 0
325 576 -326 0
325 -576 -331 0
-325 -576 331 0
-325 576 326 0
326 -515 278 0
326 278 -307 -327 0
-326 -278 0
-326 515 307 0
-326 515 327 0
327 -5 -328 0
327 -531 5 0
-327 -5 328 0
-327 531 5 0
328 46 -329 0
328 -46 -330 0
-328 -46 330 0
-328 46 329 0
329 76 -313 0
329 -76 -315 0
-329 -76 315 0
-329 76 313 0
330 76 -316 0
-330 -76 0
-330 316 0
331 -516 278 0
331 278 -307 -332 0
-331 -278 0
-331 516 307 0
-331 516 332 0
332 -5 -333 0
332 -532 5 0
-332 -5 333 0
-332 532 5 0
333 46 -334 0
333 -46 -335 0
-333 -46 335 0
-333 46 334 0
334 76 -321 0
334 -76 -323 0
-334 -76 323 0
-334 76 321 0
335 76 -324 0
-335 -76 0
-335 324 0
336 -574 -575 346 0
336 -574 575 337 0
-336 574 0
-336 -575 -346 0
-336 575 -337 0
337 576 -338 0
337 -576 -342 0
-337 -576 342 0
-337 576 338 0
338 -517 278 0
338 278 -307 -339 0
-338 -278 0
-338 517 307 0
-338 517 339 0
339 5 -340 0
339 -5 -341 0
-339 -5 341 0
-339 5 340 0
340 -46 -312 0
340 -533 46 0
-340 -46 312 0
-340 533 46 0
341 46 -314 0
-341 -46 0
-341 314 0
342 -518 278 0
342 278 -307 -343 0
-342 -278 0
-342 518 307 0
-342 518 343 0
343 5 -344 0
343 -5 -345 0
-343 -5 345 0
-343 5 344 0
344 -46 -320 0
344 -534 46 0
-344 -46 320 0
-344 534 46 0
345 46 -322 0
-345 -46 0
-345 322 0
346 576 -347 0
346 -576 -351 0
-346 -576 351 0
-346 576 347 0
347 -519 278 0
347 278 -307 -348 0
-347 -278 0
-347 519 307 0
-347 519 348 0
348 5 -349 0
348 -5 -350 0
-348 -5 350 0
-348 5 349 0
349 -46 -329 0
349 -535 46 0
-349 -46 329 0
-349 535 46 0
350 46 -330 0
-350 -46 0
-350 330 0
351 -520 278 0
351 278 -307 -352 0
-351 -278 0
-351 520 307 0
-351 520 352 0
352 5 -353 0
352 -5 -354 0
-352 -5 354 0
-352 5 353 0
353 -46 -334 0
353 -536 46 0
-353 -46 334 0
-353 536 46 0
354 46 -335 0
-354 -46 0
-354 335 0
355 574 -356 0
355 -574 -367 0
-355 -574 367 0
-355 574 356 0
356 575 -357 0
356 -575 -362 0
-356 -575 362 0
-356 575 357 0
357 576 -358 0
357 -576 -360 0
-357 -576 360 0
-357 576 358 0
358 -521 278 307 0
358 278 -307 -359 0
-358 -278 0
-358 521 307 0
-358 -307 359 0
359 5 -311 0
-359 -5 0
-359 311 0
360 -522 278 307 0
360 278 -307 -361 0
-360 -278 0
-360 522 307 0
-360 -307 361 0
361 5 -319 0
-361 -5 0
-361 319 0
362 576 -363 0
362 -576 -365 0
-362 -576 365 0
-362 576 363 0
363 -523 278 307 0
363 278 -307 -364 0
-363 -278 0
-363 523 307 0
-363 -307 364 0
364 5 -328 0
-364 -5 0
-364 328 0
365 -524 278 307 0
365 278 -307 -366 0
-365 -278 0
-365 524 307 0
-365 -307 366 0
366 5 -333 0
-366 -5 0
-366 333 0
367 575 -368 0
367 -575 -375 0
-367 -575 375 0
-367 575 368 0
368 576 -369 0
368 -576 -372 0
-368 -576 372 0
-368 576 369 0
369 278 -307 -371 0
369 278 307 -370 0
-369 -278 0
-369 -307 371 0
-369 307 370 0
370 -5 -340 0
370 -525 5 0
-370 -5 340 0
-370 525 5 0
371 5 -341 0
-371 -5 0
-371 341 0
372 278 -307 -374 0
372 278 307 -373 0
-372 -278 0
-372 -307 374 0
-372 307 373 0
373 -5 -344 0
373 -526 5 0
-373 -5 344 0
-373 526 5 0
374 5 -345 0
-374 -5 0
-374 345 0
375 576 -376 0
375 -576 -379 0
-375 -576 379 0
-375 576 376 0
376 278 -307 -378 0
376 278 307 -377 0
-376 -278 0
-376 -307 378 0
-376 307 377 0
377 -5 -349 0
377 -527 5 0
-377 -5 349 0
-377 527 5 0
378 5 -350 0
-378 -5 0
-378 350 0
379 278 -307 -381 0
379 278 307 -380 0
-379 -278 0
-379 -307 381 0
-379 307 380 0
380 -5 -353 0
380 -528 5 0
-380 -5 353 0
-380 528 5 0
381 5 -354 0
-381 -5 0
-381 354 0
-382 549 120 383 385 0
382 -549 0
382 -385 0
382 -383 0
382 -120 0
-383 565 118 121 384 0
383 -565 0
383 -384 0
383 -121 0
383 -118 0
-384 559 560 561 117 0
384 -117 0
384 -561 0
384 -559 0
384 -560 0
-385 555 556 114 386 0
385 -555 0
385 -386 0
385 -114 0
385 -556 0
-386 553 554 0
386 -553 0
386 -554 0
387 573 -388 0
387 -573 -404 0
-387 -573 404 0
-387 573 388 0
388 574 -389 0
388 -574 -397 0
-388 -574 397 0
-388 574 389 0
389 575 -390 0
389 -575 -394 0
-389 -575 394 0
-389 575 390 0
390 576 -391 0
390 -576 -393 0
-390 -576 393 0
-390 576 391 0
391 -310 392 0
-391 310 0
-391 -392 0
-392 278 307 0
392 -278 0
392 -307 0
393 -318 392 0
-393 318 0
-393 -392 0
394 576 -395 0
394 -576 -396 0
-394 -576 396 0
-394 576 395 0
395 -327 392 0
-395 327 0
-395 -392 0
396 -332 392 0
-396 332 0
-396 -392 0
397 575 -398 0
397 -575 -401 0
-397 -575 401 0
-397 575 398 0
398 576 -399 0
398 -576 -400 0
-398 -576 400 0
-398 576 399 0
399 -339 392 0
-399 339 0
-399 -392 0
400 -343 392 0
-400 343 0
-400 -392 0
401 576 -402 0
401 -576 -403 0
-401 -576 403 0
-401 576 402 0
402 -348 392 0
-402 348 0
-402 -392 0
403 -352 392 0
-403 352 0
-403 -392 0
404 574 -405 0
404 -574 -412 0
-404 -574 412 0
-404 574 405 0
405 575 -406 0
405 -575 -409 0
-405 -575 409 0
-405 575 406 0
406 576 -407 0
406 -576 -408 0
-406 -576 408 0
-406 576 407 0
407 -359 392 0
-407 359 0
-407 -392 0
408 -361 392 0
-408 361 0
-408 -392 0
409 576 -410 0
409 -576 -411 0
-409 -576 411 0
-409 576 410 0
410 -364 392 0
-410 364 0
-410 -392 0
411 -366 392 0
-411 366 0
-411 -392 0
412 575 -413 0
412 -575 -416 0
-412 -575 416 0
-412 575 413 0
413 576 -414 0
413 -576 -415 0
-413 -576 415 0
-413 576 414 0
414 -371 392 0
-414 371 0
-414 -392 0
415 -374 392 0
-415 374 0
-415 -392 0
416 576 -417 0
416 -576 -418 0
-416 -576 418 0
-416 576 417 0
417 -378 392 0
-417 378 0
-417 -392 0
418 -381 392 0
-418 381 0
-418 -392 0
419 -572 111 -421 0
419 572 111 -420 0
-419 -111 0
-419 -572 421 0
-419 572 420 0
420 573 -355 0
420 -573 -388 0
-420 -573 388 0
-420 573 355 0
421 573 -404 0
-421 -573 0
-421 404 0
422 -307 392 0
422 5 -244 392 0
-422 -392 0
-422 -5 307 0
-422 244 307 0
-423 -115 504 0
-423 -548 504 0
-423 424 504 0
423 -504 0
423 548 115 -424 0
-424 274 425 485 0
-424 -4 425 485 0
424 -425 0
424 -485 0
424 4 -274 0
-425 429 441 0
-425 5 -426 441 0
425 -441 0
425 426 -429 0
425 -5 -429 0
-426 46 427 0
-426 -46 428 0
426 -46 -428 0
426 46 -427 0
-427 -76 214 0
-427 76 92 0
427 76 -92 0
427 -76 -214 0
428 76 -229 0
428 -76 -246 0
-428 -76 246 0
-428 76 229 0
429 -572 382 -436 0
429 572 382 -430 0
-429 -382 0
-429 -572 436 0
-429 572 430 0
430 573 -431 0
430 -573 -434 435 0
-430 -573 434 0
-430 573 431 0
-430 -573 -435 0
431 574 -432 0
431 -574 -433 0
-431 -574 433 0
-431 574 432 0
432 575 -325 0
432 -575 -337 0
-432 -575 337 0
-432 575 325 0
433 575 -346 0
433 -575 -357 0
-433 -575 357 0
-433 575 346 0
-434 574 -575 368 0
-434 574 575 362 0
434 -574 0
434 -575 -368 0
434 575 -362 0
435 -574 -575 390 0
435 -574 575 375 0
-435 574 0
-435 -575 -390 0
-435 575 -375 0
436 -573 -439 0
436 573 -437 438 0
-436 573 437 0
-436 -573 439 0
-436 573 -438 0
-437 574 -575 398 0
-437 574 575 394 0
437 -574 0
437 -575 -398 0
437 575 -394 0
438 -574 -575 406 0
438 -574 575 401 0
-438 574 0
-438 -575 -406 0
-438 575 -401 0
439 574 -440 0
439 -574 575 -416 0
-439 -574 -575 0
-439 574 440 0
-439 -574 416 0
440 575 -409 0
440 -575 -413 0
-440 -575 413 0
-440 575 409 0
441 5 442 -453 0
441 442 445 -453 0
-441 453 0
-441 -442 0
-441 -5 -445 0
442 46 76 -444 0
442 46 -76 -443 0
-442 -46 0
-442 -76 443 0
-442 76 444 0
443 93 -150 0
443 -93 -215 0
-443 -93 215 0
-443 93 150 0
444 -93 -110 0
444 93 -197 0
-444 93 197 0
-444 -93 110 0
445 46 -446 0
445 -46 -449 0
-445 -46 449 0
-445 46 446 0
446 76 -447 0
446 -76 -448 0
-446 -76 448 0
-446 76 447 0
447 93 -250 0
447 -93 -254 0
-447 -93 254 0
-447 93 250 0
448 93 -257 0
448 -93 -262 0
-448 -93 262 0
-448 93 257 0
449 76 -450 0
449 -76 -451 0
-449 -76 451 0
-449 76 450 0
450 93 -265 0
-450 -93 0
-450 265 0
451 93 -271 0
451 -93 -189 452 0
-451 -93 -452 0
-451 93 271 0
-451 -93 189 0
-452 572 111 0
452 -572 0
452 -111 0
453 -572 382 -470 0
453 572 382 -454 0
-453 -382 0
-453 -572 470 0
-453 572 454 0
454 573 -455 0
454 -573 -463 0
-454 -573 463 0
-454 573 455 0
455 574 -456 0
455 -574 -460 0
-455 -574 460 0
-455 574 456 0
456 575 -457 0
456 -575 -459 0
-456 -575 459 0
-456 575 457 0
457 576 -458 0
457 -576 -326 0
-457 -576 326 0
-457 576 458 0
458 -514 278 0
458 278 -307 -318 0
-458 -278 0
-458 514 307 0
-458 514 318 0
459 576 -331 0
459 -576 -338 0
-459 -576 338 0
-459 576 331 0
460 575 -461 0
460 -575 -462 0
-460 -575 462 0
-460 575 461 0
461 576 -342 0
461 -576 -347 0
-461 -576 347 0
-461 576 342 0
462 576 -351 0
462 -576 -358 0
-462 -576 358 0
-462 576 351 0
463 574 -464 0
463 -574 -467 0
-463 -574 467 0
-463 574 464 0
464 575 -465 0
464 -575 -466 0
-464 -575 466 0
-464 575 465 0
465 576 -360 0
465 -576 -363 0
-465 -576 363 0
-465 576 360 0
466 576 -365 0
466 -576 -369 0
-466 -576 369 0
-466 576 365 0
467 575 -468 0
467 -575 -469 0
-467 -575 469 0
-467 575 468 0
468 576 -372 0
468 -576 -376 0
-468 -576 376 0
-468 576 372 0
469 576 -379 0
469 -576 -391 0
-469 -576 391 0
-469 576 379 0
470 573 -471 0
470 -573 -478 0
-470 -573 478 0
-470 573 471 0
471 574 -472 0
471 -574 -475 0
-471 -574 475 0
-471 574 472 0
472 575 -473 0
472 -575 -474 0
-472 -575 474 0
-472 575 473 0
473 576 -393 0
473 -576 -395 0
-473 -576 395 0
-473 576 393 0
474 576 -396 0
474 -576 -399 0
-474 -576 399 0
-474 576 396 0
475 575 -476 0
475 -575 -477 0
-475 -575 477 0
-475 575 476 0
476 576 -400 0
476 -576 -402 0
-476 -576 402 0
-476 576 400 0
477 576 -403 0
477 -576 -407 0
-477 -576 407 0
-477 576 403 0
478 574 -479 0
478 -574 -482 0
-478 -574 482 0
-478 574 479 0
479 575 -480 0
479 -575 -481 0
-479 -575 481 0
-479 575 480 0
480 576 -408 0
480 -576 -410 0
-480 -576 410 0
-480 576 408 0
481 576 -411 0
481 -576 -414 0
-481 -576 414 0
-481 576 411 0
482 575 -483 0
482 -575 -484 0
-482 -575 484 0
-482 575 483 0
483 576 -415 0
483 -576 -417 0
-483 -576 417 0
-483 576 415 0
484 576 -418 0
-484 -576 0
-484 418 0
485 5 486 -492 0
485 -5 491 -492 0
-485 492 0
-485 -5 -491 0
-485 5 -486 0
-486 46 487 0
-486 -46 489 0
486 -46 -489 0
486 46 -487 0
-487 -76 488 0
-487 76 443 0
487 76 -443 0
487 -76 -488 0
488 93 -222 0
488 -93 -230 0
-488 -93 230 0
-488 93 222 0
489 -76 -447 0
489 76 -490 0
-489 76 490 0
-489 -76 447 0
490 93 -237 0
490 -93 -247 0
-490 -93 247 0
-490 93 237 0
491 46 -76 -450 0
491 46 76 -448 0
-491 -46 0
-491 -76 450 0
-491 76 448 0
492 -572 382 -499 0
492 572 382 -493 0
-492 -382 0
-492 -572 499 0
-492 572 493 0
493 573 -494 0
493 -573 -497 498 0
-493 -573 497 0
-493 573 494 0
-493 -573 -498 0
494 574 -495 0
494 -574 -496 0
-494 -574 496 0
-494 574 495 0
495 575 -459 0
495 -575 -461 0
-495 -575 461 0
-495 575 459 0
496 575 -462 0
496 -575 -465 0
-496 -575 465 0
-496 575 462 0
-497 574 -575 468 0
-497 574 575 466 0
497 -574 0
497 -575 -468 0
497 575 -466 0
498 -574 -575 473 0
498 -574 575 469 0
-498 574 0
-498 -575 -473 0
-498 575 -469 0
499 -573 -502 0
499 573 -500 501 0
-499 573 500 0
-499 -573 502 0
-499 573 -501 0
-500 574 -575 476 0
-500 574 575 474 0
500 -574 0
500 -575 -476 0
500 575 -474 0
501 -574 -575 480 0
501 -574 575 477 0
-501 574 0
-501 -575 -480 0
-501 575 -477 0
502 574 -503 0
502 -574 575 -484 0
-502 -574 -575 0
-502 574 503 0
-502 -574 484 0
503 575 -481 0
503 -575 -483 0
-503 -575 483 0
-503 575 481 0
504 278 307 505 -511 0
-504 511 0
-504 -505 0
-504 -278 0
-504 -307 0
505 -572 111 -509 0
505 572 111 -506 0
-505 -111 0
-505 -572 509 0
-505 572 506 0
506 573 -507 0
506 -573 -508 0
-506 -573 508 0
-506 573 507 0
507 574 -460 0
507 -574 -464 0
-507 -574 464 0
-507 574 460 0
508 574 -467 0
508 -574 -472 0
-508 -574 472 0
-508 574 467 0
509 573 -510 0
509 -573 574 -482 0
-509 -573 -574 0
-509 573 510 0
-509 -573 482 0
510 574 -475 0
510 -574 -479 0
-510 -574 479 0
-510 574 475 0
511 5 -512 0
511 5 -46 -446 0
-511 -5 0
-511 46 512 0
-511 446 512 0
512 76 -488 0
512 -76 -490 0
-512 -76 490 0
-512 76 488 0
-577 0
2 0

